p min 16 24
n 1 2
n 16 -2
a 1 2 0 2 0
a 2 3 0 2 0
a 2 9 0 2 -100
a 3 4 0 2 0
a 3 6 0 1 -109804
a 3 10 0 2 -100
a 4 5 0 2 0
a 4 7 0 1 -99734
a 4 11 0 2 -100
a 5 6 0 2 0
a 5 8 0 1 -119521
a 5 12 0 2 -100
a 6 7 0 2 0
a 6 13 0 2 -100
a 7 8 0 2 0
a 7 14 0 2 -100
a 8 15 0 2 -100
a 9 10 0 2 -100
a 10 11 0 2 -100
a 11 12 0 2 -100
a 12 13 0 2 -100
a 13 14 0 2 -100
a 14 15 0 2 -100
a 15 16 0 2 -100
